n = 10
Q1 = [0 0 0 0 10 27 41 29 15 0; 0 0 13 40 0 19 42 0 0 8; 0 0 0 0 0 5 0 0 0 0; 0 0 0 0 19 0 0 0 0 0; 0 0 0 0 0 0 17 0 0 0; 0 0 0 0 0 0 0 7 0 0; 0 0 0 0 0 0 0 6 35 12; 0 0 0 0 0 0 0 0 26 7; 0 0 0 0 0 0 0 0 0 0; 0 0 0 0 0 0 0 0 0 0]
Q2 = [0.0 0.0 0.0 0.0 34.0 13.0 1.0 9.0 36.0 0.0; 0.0 0.0 38.0 0.0 0.0 25.0 0.0 0.0 0.0 41.0; 0.0 0.0 0.0 0.0 0.0 40.0 0.0 0.0 0.0 0.0; 0.0 0.0 0.0 0.0 24.0 0.0 0.0 0.0 0.0 0.0; 0.0 0.0 0.0 0.0 0.0 0.0 26.0 0.0 0.0 0.0; 0.0 0.0 0.0 0.0 0.0 0.0 0.0 35.0 0.0 0.0; 0.0 0.0 0.0 0.0 0.0 0.0 0.0 40.0 0.0 33.0; 0.0 0.0 0.0 0.0 0.0 0.0 0.0 0.0 14.0 42.0; 0.0 0.0 0.0 0.0 0.0 0.0 0.0 0.0 0.0 0.0; 0.0 0.0 0.0 0.0 0.0 0.0 0.0 0.0 0.0 0.0]
Q3 = [0 51 51 51 1 1 1 10 0 51; 0 0 0 11 51 2 1 51 51 0; 0 0 0 51 51 2 51 51 51 51; 0 0 0 0 3 51 51 51 51 51; 0 0 0 0 0 51 5 51 51 51; 0 0 0 0 0 0 51 0 51 51; 0 0 0 0 0 0 0 2 2 0; 0 0 0 0 0 0 0 0 9 0; 0 0 0 0 0 0 0 0 0 51; 0 0 0 0 0 0 0 0 0 0]
